157 147 199 68 80 175 164 65 107 
112 20 94 125 32 118 111 83 198 
155 161 92 66 31 185 169 53 91 
87 120 26 14 136 142 127 102 
46 188 71 38 181 78 105 
158 150 60 99 62 194 90 22 52 24 
63 67 143 139 162 171 122 103 101 154 28 197 
106 85 76 156 148 
196 13 48 176 165 69 170 40 110 
81 115 163 100 6 189 23 29 27 75 
168 137 133 64 195 160 79 11 49 
73 145 166 193 151 178 159 70 61 
7 41 3 113 25 182 167 43 190 
72 184 153 135 89 95 138 88 183 200 10 
140 30 2 8 104 114 58 141 74 59 
1 18 36 5 146 124 17 192 42 
4 15 86 131 56 33 144 186 45 
149 57 173 152 34 98 84 39 96 174 97 119 108 
132 44 54 130 180 9 77 
55 93 21 134 126 172 
117 50 187 121 177 47 82 
51 123 109 37 179 
35 12 19 129 191 
16 116 128 

